; Query 0 -- Type: InitialValues, Instructions: 1733
(set-option :produce-models true)
(set-logic QF_AUFBV )
(declare-fun v0___symfile____tmp_input___0_1_symfile___0 () (Array (_ BitVec 32) (_ BitVec 8) ) )
(assert (let ( (?B1 (select  v0___symfile____tmp_input___0_1_symfile___0 (_ bv0 32) ) ) ) (let ( (?B2 ((_ zero_extend 24)  ?B1 ) ) ) (and  (and  (=  false (=  (_ bv0 32) (bvand  (bvand  ?B2 ?B2 ) (_ bv255 32) ) ) ) (bvule  ?B1 (_ bv126 8) ) ) (bvule  (_ bv32 8) ?B1 ) ) ) ) )
(check-sat)
(get-value ( (select v0___symfile____tmp_input___0_1_symfile___0 (_ bv0 32) ) ) )
(exit)
;   OK -- Elapsed: 1.833916e-03
;   Solvable: true
;     v0___symfile____tmp_input___0_1_symfile___0 = [63]

; Query 1 -- Type: InitialValues, Instructions: 2652
(set-option :produce-models true)
(set-logic QF_AUFBV )
(declare-fun v0___symfile____tmp_input___0_1_symfile___0 () (Array (_ BitVec 32) (_ BitVec 8) ) )
(assert (let ( (?B1 (select  v0___symfile____tmp_input___0_1_symfile___0 (_ bv0 32) ) ) ) (let ( (?B2 ((_ zero_extend 24)  ?B1 ) ) ) (and  (and  (and  (=  (_ bv0 32) (bvand  (bvadd  (_ bv4294967253 32) ?B2 ) (_ bv255 32) ) ) (=  false (=  (_ bv0 32) (bvand  (bvand  ?B2 ?B2 ) (_ bv255 32) ) ) ) ) (bvule  ?B1 (_ bv126 8) ) ) (bvule  (_ bv32 8) ?B1 ) ) ) ) )
(check-sat)
(get-value ( (select v0___symfile____tmp_input___0_1_symfile___0 (_ bv0 32) ) ) )
(exit)
;   OK -- Elapsed: 7.990599e-04
;   Solvable: true
;     v0___symfile____tmp_input___0_1_symfile___0 = [43]

; Query 2 -- Type: InitialValues, Instructions: 2788
(set-option :produce-models true)
(set-logic QF_AUFBV )
(declare-fun v0___symfile____tmp_input___0_1_symfile___0 () (Array (_ BitVec 32) (_ BitVec 8) ) )
(assert (let ( (?B1 (select  v0___symfile____tmp_input___0_1_symfile___0 (_ bv0 32) ) ) ) (let ( (?B2 ((_ zero_extend 24)  ?B1 ) ) ) (and  (and  (and  (and  (=  (_ bv0 32) (bvand  (bvadd  (_ bv4294967251 32) ?B2 ) (_ bv255 32) ) ) (=  false (=  (_ bv0 32) (bvand  (bvadd  (_ bv4294967253 32) ?B2 ) (_ bv255 32) ) ) ) ) (=  false (=  (_ bv0 32) (bvand  (bvand  ?B2 ?B2 ) (_ bv255 32) ) ) ) ) (bvule  ?B1 (_ bv126 8) ) ) (bvule  (_ bv32 8) ?B1 ) ) ) ) )
(check-sat)
(get-value ( (select v0___symfile____tmp_input___0_1_symfile___0 (_ bv0 32) ) ) )
(exit)
;   OK -- Elapsed: 7.339716e-04
;   Solvable: true
;     v0___symfile____tmp_input___0_1_symfile___0 = [45]

; Query 3 -- Type: InitialValues, Instructions: 2924
(set-option :produce-models true)
(set-logic QF_AUFBV )
(declare-fun v0___symfile____tmp_input___0_1_symfile___0 () (Array (_ BitVec 32) (_ BitVec 8) ) )
(assert (let ( (?B1 (select  v0___symfile____tmp_input___0_1_symfile___0 (_ bv0 32) ) ) ) (let ( (?B2 ((_ zero_extend 24)  ?B1 ) ) ) (and  (and  (and  (and  (and  (=  (_ bv0 32) (bvand  (bvadd  (_ bv4294967254 32) ?B2 ) (_ bv255 32) ) ) (=  false (=  (_ bv0 32) (bvand  (bvadd  (_ bv4294967251 32) ?B2 ) (_ bv255 32) ) ) ) ) (=  false (=  (_ bv0 32) (bvand  (bvadd  (_ bv4294967253 32) ?B2 ) (_ bv255 32) ) ) ) ) (=  false (=  (_ bv0 32) (bvand  (bvand  ?B2 ?B2 ) (_ bv255 32) ) ) ) ) (bvule  ?B1 (_ bv126 8) ) ) (bvule  (_ bv32 8) ?B1 ) ) ) ) )
(check-sat)
(get-value ( (select v0___symfile____tmp_input___0_1_symfile___0 (_ bv0 32) ) ) )
(exit)
;   OK -- Elapsed: 7.750988e-04
;   Solvable: true
;     v0___symfile____tmp_input___0_1_symfile___0 = [42]

; Query 4 -- Type: InitialValues, Instructions: 3060
(set-option :produce-models true)
(set-logic QF_AUFBV )
(declare-fun v0___symfile____tmp_input___0_1_symfile___0 () (Array (_ BitVec 32) (_ BitVec 8) ) )
(assert (let ( (?B1 (select  v0___symfile____tmp_input___0_1_symfile___0 (_ bv0 32) ) ) ) (let ( (?B2 ((_ zero_extend 24)  ?B1 ) ) ) (and  (and  (and  (and  (and  (and  (=  (_ bv0 32) (bvand  (bvadd  (_ bv4294967249 32) ?B2 ) (_ bv255 32) ) ) (=  false (=  (_ bv0 32) (bvand  (bvadd  (_ bv4294967254 32) ?B2 ) (_ bv255 32) ) ) ) ) (=  false (=  (_ bv0 32) (bvand  (bvadd  (_ bv4294967251 32) ?B2 ) (_ bv255 32) ) ) ) ) (=  false (=  (_ bv0 32) (bvand  (bvadd  (_ bv4294967253 32) ?B2 ) (_ bv255 32) ) ) ) ) (=  false (=  (_ bv0 32) (bvand  (bvand  ?B2 ?B2 ) (_ bv255 32) ) ) ) ) (bvule  ?B1 (_ bv126 8) ) ) (bvule  (_ bv32 8) ?B1 ) ) ) ) )
(check-sat)
(get-value ( (select v0___symfile____tmp_input___0_1_symfile___0 (_ bv0 32) ) ) )
(exit)
;   OK -- Elapsed: 8.429289e-04
;   Solvable: true
;     v0___symfile____tmp_input___0_1_symfile___0 = [47]

; Query 5 -- Type: InitialValues, Instructions: 3196
(set-option :produce-models true)
(set-logic QF_AUFBV )
(declare-fun v0___symfile____tmp_input___0_1_symfile___0 () (Array (_ BitVec 32) (_ BitVec 8) ) )
(assert (let ( (?B1 (select  v0___symfile____tmp_input___0_1_symfile___0 (_ bv0 32) ) ) ) (let ( (?B2 ((_ zero_extend 24)  ?B1 ) ) ) (and  (and  (and  (and  (and  (and  (and  (=  (_ bv0 32) (bvand  (bvadd  (_ bv4294967256 32) ?B2 ) (_ bv255 32) ) ) (=  false (=  (_ bv0 32) (bvand  (bvadd  (_ bv4294967249 32) ?B2 ) (_ bv255 32) ) ) ) ) (=  false (=  (_ bv0 32) (bvand  (bvadd  (_ bv4294967254 32) ?B2 ) (_ bv255 32) ) ) ) ) (=  false (=  (_ bv0 32) (bvand  (bvadd  (_ bv4294967251 32) ?B2 ) (_ bv255 32) ) ) ) ) (=  false (=  (_ bv0 32) (bvand  (bvadd  (_ bv4294967253 32) ?B2 ) (_ bv255 32) ) ) ) ) (=  false (=  (_ bv0 32) (bvand  (bvand  ?B2 ?B2 ) (_ bv255 32) ) ) ) ) (bvule  ?B1 (_ bv126 8) ) ) (bvule  (_ bv32 8) ?B1 ) ) ) ) )
(check-sat)
(get-value ( (select v0___symfile____tmp_input___0_1_symfile___0 (_ bv0 32) ) ) )
(exit)
;   OK -- Elapsed: 8.029938e-04
;   Solvable: true
;     v0___symfile____tmp_input___0_1_symfile___0 = [40]

; Query 6 -- Type: InitialValues, Instructions: 3332
(set-option :produce-models true)
(set-logic QF_AUFBV )
(declare-fun v0___symfile____tmp_input___0_1_symfile___0 () (Array (_ BitVec 32) (_ BitVec 8) ) )
(assert (let ( (?B1 (select  v0___symfile____tmp_input___0_1_symfile___0 (_ bv0 32) ) ) ) (let ( (?B2 ((_ zero_extend 24)  ?B1 ) ) ) (and  (and  (and  (and  (and  (and  (and  (and  (=  (_ bv0 32) (bvand  (bvadd  (_ bv4294967255 32) ?B2 ) (_ bv255 32) ) ) (=  false (=  (_ bv0 32) (bvand  (bvadd  (_ bv4294967256 32) ?B2 ) (_ bv255 32) ) ) ) ) (=  false (=  (_ bv0 32) (bvand  (bvadd  (_ bv4294967249 32) ?B2 ) (_ bv255 32) ) ) ) ) (=  false (=  (_ bv0 32) (bvand  (bvadd  (_ bv4294967254 32) ?B2 ) (_ bv255 32) ) ) ) ) (=  false (=  (_ bv0 32) (bvand  (bvadd  (_ bv4294967251 32) ?B2 ) (_ bv255 32) ) ) ) ) (=  false (=  (_ bv0 32) (bvand  (bvadd  (_ bv4294967253 32) ?B2 ) (_ bv255 32) ) ) ) ) (=  false (=  (_ bv0 32) (bvand  (bvand  ?B2 ?B2 ) (_ bv255 32) ) ) ) ) (bvule  ?B1 (_ bv126 8) ) ) (bvule  (_ bv32 8) ?B1 ) ) ) ) )
(check-sat)
(get-value ( (select v0___symfile____tmp_input___0_1_symfile___0 (_ bv0 32) ) ) )
(exit)
;   OK -- Elapsed: 7.929802e-04
;   Solvable: true
;     v0___symfile____tmp_input___0_1_symfile___0 = [41]

; Query 7 -- Type: InitialValues, Instructions: 3890
(set-option :produce-models true)
(set-logic QF_AUFBV )
(declare-fun v0___symfile____tmp_input___0_1_symfile___0 () (Array (_ BitVec 32) (_ BitVec 8) ) )
(assert (let ( (?B1 (select  v0___symfile____tmp_input___0_1_symfile___0 (_ bv0 32) ) ) ) (let ( (?B2 ((_ zero_extend 24)  ?B1 ) ) ) (and  (and  (and  (and  (and  (and  (and  (and  (and  (bvsle  ((_ sign_extend 24)  ?B1 ) (_ bv47 32) ) (=  false (=  (_ bv0 32) (bvand  (bvadd  (_ bv4294967255 32) ?B2 ) (_ bv255 32) ) ) ) ) (=  false (=  (_ bv0 32) (bvand  (bvadd  (_ bv4294967256 32) ?B2 ) (_ bv255 32) ) ) ) ) (=  false (=  (_ bv0 32) (bvand  (bvadd  (_ bv4294967249 32) ?B2 ) (_ bv255 32) ) ) ) ) (=  false (=  (_ bv0 32) (bvand  (bvadd  (_ bv4294967254 32) ?B2 ) (_ bv255 32) ) ) ) ) (=  false (=  (_ bv0 32) (bvand  (bvadd  (_ bv4294967251 32) ?B2 ) (_ bv255 32) ) ) ) ) (=  false (=  (_ bv0 32) (bvand  (bvadd  (_ bv4294967253 32) ?B2 ) (_ bv255 32) ) ) ) ) (=  false (=  (_ bv0 32) (bvand  (bvand  ?B2 ?B2 ) (_ bv255 32) ) ) ) ) (bvule  ?B1 (_ bv126 8) ) ) (bvule  (_ bv32 8) ?B1 ) ) ) ) )
(check-sat)
(get-value ( (select v0___symfile____tmp_input___0_1_symfile___0 (_ bv0 32) ) ) )
(exit)
;   OK -- Elapsed: 1.173973e-03
;   Solvable: true
;     v0___symfile____tmp_input___0_1_symfile___0 = [32]

; Query 8 -- Type: InitialValues, Instructions: 4028
(set-option :produce-models true)
(set-logic QF_AUFBV )
(declare-fun v0___symfile____tmp_input___0_1_symfile___0 () (Array (_ BitVec 32) (_ BitVec 8) ) )
(assert (let ( (?B1 (select  v0___symfile____tmp_input___0_1_symfile___0 (_ bv0 32) ) ) ) (let ( (?B2 ((_ zero_extend 24)  ?B1 ) ) (?B3 ((_ sign_extend 24)  ?B1 ) ) ) (and  (and  (and  (and  (and  (and  (and  (and  (and  (and  (=  false (bvslt  (_ bv57 32) ?B3 ) ) (=  false (bvsle  ?B3 (_ bv47 32) ) ) ) (=  false (=  (_ bv0 32) (bvand  (bvadd  (_ bv4294967255 32) ?B2 ) (_ bv255 32) ) ) ) ) (=  false (=  (_ bv0 32) (bvand  (bvadd  (_ bv4294967256 32) ?B2 ) (_ bv255 32) ) ) ) ) (=  false (=  (_ bv0 32) (bvand  (bvadd  (_ bv4294967249 32) ?B2 ) (_ bv255 32) ) ) ) ) (=  false (=  (_ bv0 32) (bvand  (bvadd  (_ bv4294967254 32) ?B2 ) (_ bv255 32) ) ) ) ) (=  false (=  (_ bv0 32) (bvand  (bvadd  (_ bv4294967251 32) ?B2 ) (_ bv255 32) ) ) ) ) (=  false (=  (_ bv0 32) (bvand  (bvadd  (_ bv4294967253 32) ?B2 ) (_ bv255 32) ) ) ) ) (=  false (=  (_ bv0 32) (bvand  (bvand  ?B2 ?B2 ) (_ bv255 32) ) ) ) ) (bvule  ?B1 (_ bv126 8) ) ) (bvule  (_ bv32 8) ?B1 ) ) ) ) )
(check-sat)
(get-value ( (select v0___symfile____tmp_input___0_1_symfile___0 (_ bv0 32) ) ) )
(exit)
;   OK -- Elapsed: 1.137972e-03
;   Solvable: true
;     v0___symfile____tmp_input___0_1_symfile___0 = [53]

; Query 9 -- Type: InitialValues, Instructions: 4383
(set-option :produce-models true)
(set-logic QF_AUFBV )
(declare-fun v0___symfile____tmp_input___0_1_symfile___0 () (Array (_ BitVec 32) (_ BitVec 8) ) )
(assert (let ( (?B1 (select  v0___symfile____tmp_input___0_1_symfile___0 (_ bv0 32) ) ) ) (let ( (?B2 ((_ zero_extend 24)  ?B1 ) ) (?B3 ((_ sign_extend 24)  ?B1 ) ) ) (and  (and  (and  (and  (and  (and  (and  (and  (and  (and  (and  (=  (_ bv0 32) (bvand  (bvadd  (_ bv4294967286 32) ?B2 ) (_ bv255 32) ) ) (bvslt  (_ bv57 32) ?B3 ) ) (=  false (bvsle  ?B3 (_ bv47 32) ) ) ) (=  false (=  (_ bv0 32) (bvand  (bvadd  (_ bv4294967255 32) ?B2 ) (_ bv255 32) ) ) ) ) (=  false (=  (_ bv0 32) (bvand  (bvadd  (_ bv4294967256 32) ?B2 ) (_ bv255 32) ) ) ) ) (=  false (=  (_ bv0 32) (bvand  (bvadd  (_ bv4294967249 32) ?B2 ) (_ bv255 32) ) ) ) ) (=  false (=  (_ bv0 32) (bvand  (bvadd  (_ bv4294967254 32) ?B2 ) (_ bv255 32) ) ) ) ) (=  false (=  (_ bv0 32) (bvand  (bvadd  (_ bv4294967251 32) ?B2 ) (_ bv255 32) ) ) ) ) (=  false (=  (_ bv0 32) (bvand  (bvadd  (_ bv4294967253 32) ?B2 ) (_ bv255 32) ) ) ) ) (=  false (=  (_ bv0 32) (bvand  (bvand  ?B2 ?B2 ) (_ bv255 32) ) ) ) ) (bvule  ?B1 (_ bv126 8) ) ) (bvule  (_ bv32 8) ?B1 ) ) ) ) )
(check-sat)
(get-value ( (select v0___symfile____tmp_input___0_1_symfile___0 (_ bv0 32) ) ) )
(exit)
;   OK -- Elapsed: 7.179976e-04
;   Solvable: false

; Query 10 -- Type: InitialValues, Instructions: 4518
(set-option :produce-models true)
(set-logic QF_AUFBV )
(declare-fun v0___symfile____tmp_input___0_1_symfile___0 () (Array (_ BitVec 32) (_ BitVec 8) ) )
(assert (let ( (?B1 (select  v0___symfile____tmp_input___0_1_symfile___0 (_ bv0 32) ) ) ) (let ( (?B2 ((_ zero_extend 24)  ?B1 ) ) (?B3 ((_ sign_extend 24)  ?B1 ) ) ) (and  (and  (and  (and  (and  (and  (and  (and  (and  (and  (and  (=  (_ bv0 32) (bvand  ?B2 (_ bv255 32) ) ) (bvslt  (_ bv57 32) ?B3 ) ) (=  false (bvsle  ?B3 (_ bv47 32) ) ) ) (=  false (=  (_ bv0 32) (bvand  (bvadd  (_ bv4294967255 32) ?B2 ) (_ bv255 32) ) ) ) ) (=  false (=  (_ bv0 32) (bvand  (bvadd  (_ bv4294967256 32) ?B2 ) (_ bv255 32) ) ) ) ) (=  false (=  (_ bv0 32) (bvand  (bvadd  (_ bv4294967249 32) ?B2 ) (_ bv255 32) ) ) ) ) (=  false (=  (_ bv0 32) (bvand  (bvadd  (_ bv4294967254 32) ?B2 ) (_ bv255 32) ) ) ) ) (=  false (=  (_ bv0 32) (bvand  (bvadd  (_ bv4294967251 32) ?B2 ) (_ bv255 32) ) ) ) ) (=  false (=  (_ bv0 32) (bvand  (bvadd  (_ bv4294967253 32) ?B2 ) (_ bv255 32) ) ) ) ) (=  false (=  (_ bv0 32) (bvand  (bvand  ?B2 ?B2 ) (_ bv255 32) ) ) ) ) (bvule  ?B1 (_ bv126 8) ) ) (bvule  (_ bv32 8) ?B1 ) ) ) ) )
(check-sat)
(get-value ( (select v0___symfile____tmp_input___0_1_symfile___0 (_ bv0 32) ) ) )
(exit)
;   OK -- Elapsed: 5.569458e-04
;   Solvable: false

; Query 11 -- Type: InitialValues, Instructions: 8857
(set-option :produce-models true)
(set-logic QF_AUFBV )
(declare-fun v0___symfile____tmp_input___0_1_symfile___0 () (Array (_ BitVec 32) (_ BitVec 8) ) )
(assert (let ( (?B1 (select  v0___symfile____tmp_input___0_1_symfile___0 (_ bv0 32) ) ) ) (let ( (?B2 ((_ zero_extend 24)  ?B1 ) ) ) (and  (and  (and  (and  (=  (_ bv0 32) (bvand  (bvadd  (_ bv4294967264 32) ?B2 ) (_ bv255 32) ) ) (=  (_ bv0 32) (bvand  (bvadd  (_ bv4294967253 32) ?B2 ) (_ bv255 32) ) ) ) (=  false (=  (_ bv0 32) (bvand  (bvand  ?B2 ?B2 ) (_ bv255 32) ) ) ) ) (bvule  ?B1 (_ bv126 8) ) ) (bvule  (_ bv32 8) ?B1 ) ) ) ) )
(check-sat)
(get-value ( (select v0___symfile____tmp_input___0_1_symfile___0 (_ bv0 32) ) ) )
(exit)
;   OK -- Elapsed: 5.509853e-04
;   Solvable: false

; Query 12 -- Type: InitialValues, Instructions: 8994
(set-option :produce-models true)
(set-logic QF_AUFBV )
(declare-fun v0___symfile____tmp_input___0_1_symfile___0 () (Array (_ BitVec 32) (_ BitVec 8) ) )
(assert (let ( (?B1 (select  v0___symfile____tmp_input___0_1_symfile___0 (_ bv0 32) ) ) ) (let ( (?B2 ((_ zero_extend 24)  ?B1 ) ) ) (and  (and  (and  (and  (=  (_ bv0 32) (bvand  (bvadd  (_ bv4294967287 32) ?B2 ) (_ bv255 32) ) ) (=  (_ bv0 32) (bvand  (bvadd  (_ bv4294967253 32) ?B2 ) (_ bv255 32) ) ) ) (=  false (=  (_ bv0 32) (bvand  (bvand  ?B2 ?B2 ) (_ bv255 32) ) ) ) ) (bvule  ?B1 (_ bv126 8) ) ) (bvule  (_ bv32 8) ?B1 ) ) ) ) )
(check-sat)
(get-value ( (select v0___symfile____tmp_input___0_1_symfile___0 (_ bv0 32) ) ) )
(exit)
;   OK -- Elapsed: 4.210472e-04
;   Solvable: false

; Query 13 -- Type: InitialValues, Instructions: 9879
(set-option :produce-models true)
(set-logic QF_AUFBV )
(declare-fun v0___symfile____tmp_input___0_1_symfile___0 () (Array (_ BitVec 32) (_ BitVec 8) ) )
(assert (let ( (?B1 (select  v0___symfile____tmp_input___0_1_symfile___0 (_ bv0 32) ) ) ) (let ( (?B2 ((_ zero_extend 24)  ?B1 ) ) ) (and  (and  (and  (and  (=  false (bvsle  ((_ sign_extend 24)  ?B1 ) (_ bv47 32) ) ) (=  (_ bv0 32) (bvand  (bvadd  (_ bv4294967253 32) ?B2 ) (_ bv255 32) ) ) ) (=  false (=  (_ bv0 32) (bvand  (bvand  ?B2 ?B2 ) (_ bv255 32) ) ) ) ) (bvule  ?B1 (_ bv126 8) ) ) (bvule  (_ bv32 8) ?B1 ) ) ) ) )
(check-sat)
(get-value ( (select v0___symfile____tmp_input___0_1_symfile___0 (_ bv0 32) ) ) )
(exit)
;   OK -- Elapsed: 4.519224e-04
;   Solvable: false

; Query 14 -- Type: InitialValues, Instructions: 10670
(set-option :produce-models true)
(set-logic QF_AUFBV )
(declare-fun v0___symfile____tmp_input___0_1_symfile___0 () (Array (_ BitVec 32) (_ BitVec 8) ) )
(assert (let ( (?B1 (select  v0___symfile____tmp_input___0_1_symfile___0 (_ bv0 32) ) ) ) (let ( (?B2 ((_ zero_extend 24)  ?B1 ) ) ) (let ( (?B3 (=  (_ bv0 32) (bvand  (bvadd  (_ bv4294967253 32) ?B2 ) (_ bv255 32) ) ) ) ) false ) ) ) )
(check-sat)
(get-value ( (select v0___symfile____tmp_input___0_1_symfile___0 (_ bv0 32) ) ) )
(exit)
;   OK -- Elapsed: 4.650354e-04
;   Solvable: false

; Query 15 -- Type: InitialValues, Instructions: 15553
(set-option :produce-models true)
(set-logic QF_AUFBV )
(declare-fun v0___symfile____tmp_input___0_1_symfile___0 () (Array (_ BitVec 32) (_ BitVec 8) ) )
(assert (let ( (?B1 (select  v0___symfile____tmp_input___0_1_symfile___0 (_ bv0 32) ) ) ) (let ( (?B2 ((_ zero_extend 24)  ?B1 ) ) ) (and  (and  (and  (and  (and  (=  (_ bv0 32) (bvand  (bvadd  (_ bv4294967264 32) ?B2 ) (_ bv255 32) ) ) (=  (_ bv0 32) (bvand  (bvadd  (_ bv4294967251 32) ?B2 ) (_ bv255 32) ) ) ) (=  false (=  (_ bv0 32) (bvand  (bvadd  (_ bv4294967253 32) ?B2 ) (_ bv255 32) ) ) ) ) (=  false (=  (_ bv0 32) (bvand  (bvand  ?B2 ?B2 ) (_ bv255 32) ) ) ) ) (bvule  ?B1 (_ bv126 8) ) ) (bvule  (_ bv32 8) ?B1 ) ) ) ) )
(check-sat)
(get-value ( (select v0___symfile____tmp_input___0_1_symfile___0 (_ bv0 32) ) ) )
(exit)
;   OK -- Elapsed: 5.789995e-04
;   Solvable: false

; Query 16 -- Type: InitialValues, Instructions: 15693
(set-option :produce-models true)
(set-logic QF_AUFBV )
(declare-fun v0___symfile____tmp_input___0_1_symfile___0 () (Array (_ BitVec 32) (_ BitVec 8) ) )
(assert (let ( (?B1 (select  v0___symfile____tmp_input___0_1_symfile___0 (_ bv0 32) ) ) ) (let ( (?B2 ((_ zero_extend 24)  ?B1 ) ) ) (and  (and  (and  (and  (and  (=  (_ bv0 32) (bvand  (bvadd  (_ bv4294967287 32) ?B2 ) (_ bv255 32) ) ) (=  (_ bv0 32) (bvand  (bvadd  (_ bv4294967251 32) ?B2 ) (_ bv255 32) ) ) ) (=  false (=  (_ bv0 32) (bvand  (bvadd  (_ bv4294967253 32) ?B2 ) (_ bv255 32) ) ) ) ) (=  false (=  (_ bv0 32) (bvand  (bvand  ?B2 ?B2 ) (_ bv255 32) ) ) ) ) (bvule  ?B1 (_ bv126 8) ) ) (bvule  (_ bv32 8) ?B1 ) ) ) ) )
(check-sat)
(get-value ( (select v0___symfile____tmp_input___0_1_symfile___0 (_ bv0 32) ) ) )
(exit)
;   OK -- Elapsed: 4.869699e-04
;   Solvable: false

; Query 17 -- Type: InitialValues, Instructions: 21345
(set-option :produce-models true)
(set-logic QF_AUFBV )
(declare-fun v0___symfile____tmp_input___0_1_symfile___0 () (Array (_ BitVec 32) (_ BitVec 8) ) )
(assert (let ( (?B1 (select  v0___symfile____tmp_input___0_1_symfile___0 (_ bv0 32) ) ) ) (let ( (?B2 ((_ zero_extend 24)  ?B1 ) ) ) (and  (and  (and  (and  (and  (=  false (bvsle  ((_ sign_extend 24)  ?B1 ) (_ bv47 32) ) ) (=  (_ bv0 32) (bvand  (bvadd  (_ bv4294967251 32) ?B2 ) (_ bv255 32) ) ) ) (=  false (=  (_ bv0 32) (bvand  (bvadd  (_ bv4294967253 32) ?B2 ) (_ bv255 32) ) ) ) ) (=  false (=  (_ bv0 32) (bvand  (bvand  ?B2 ?B2 ) (_ bv255 32) ) ) ) ) (bvule  ?B1 (_ bv126 8) ) ) (bvule  (_ bv32 8) ?B1 ) ) ) ) )
(check-sat)
(get-value ( (select v0___symfile____tmp_input___0_1_symfile___0 (_ bv0 32) ) ) )
(exit)
;   OK -- Elapsed: 5.489588e-04
;   Solvable: false

; Query 18 -- Type: InitialValues, Instructions: 22144
(set-option :produce-models true)
(set-logic QF_AUFBV )
(declare-fun v0___symfile____tmp_input___0_1_symfile___0 () (Array (_ BitVec 32) (_ BitVec 8) ) )
(assert (let ( (?B1 (select  v0___symfile____tmp_input___0_1_symfile___0 (_ bv0 32) ) ) ) (let ( (?B2 ((_ zero_extend 24)  ?B1 ) ) ) (let ( (?B3 (=  (_ bv0 32) (bvand  (bvadd  (_ bv4294967253 32) ?B2 ) (_ bv255 32) ) ) ) ) (and  (and  (and  (and  (and  ?B3 (=  (_ bv0 32) (bvand  (bvadd  (_ bv4294967251 32) ?B2 ) (_ bv255 32) ) ) ) (=  false ?B3 ) ) (=  false (=  (_ bv0 32) (bvand  (bvand  ?B2 ?B2 ) (_ bv255 32) ) ) ) ) (bvule  ?B1 (_ bv126 8) ) ) (bvule  (_ bv32 8) ?B1 ) ) ) ) ) )
(check-sat)
(get-value ( (select v0___symfile____tmp_input___0_1_symfile___0 (_ bv0 32) ) ) )
(exit)
;   OK -- Elapsed: 4.609823e-04
;   Solvable: false

; Query 19 -- Type: InitialValues, Instructions: 22283
(set-option :produce-models true)
(set-logic QF_AUFBV )
(declare-fun v0___symfile____tmp_input___0_1_symfile___0 () (Array (_ BitVec 32) (_ BitVec 8) ) )
(assert (let ( (?B1 (select  v0___symfile____tmp_input___0_1_symfile___0 (_ bv0 32) ) ) ) (let ( (?B2 ((_ zero_extend 24)  ?B1 ) ) ) (let ( (?B3 (=  (_ bv0 32) (bvand  (bvadd  (_ bv4294967251 32) ?B2 ) (_ bv255 32) ) ) ) ) false ) ) ) )
(check-sat)
(get-value ( (select v0___symfile____tmp_input___0_1_symfile___0 (_ bv0 32) ) ) )
(exit)
;   OK -- Elapsed: 4.310608e-04
;   Solvable: false

; Query 20 -- Type: InitialValues, Instructions: 34648
(set-option :produce-models true)
(set-logic QF_AUFBV )
(declare-fun v0___symfile____tmp_input___0_1_symfile___0 () (Array (_ BitVec 32) (_ BitVec 8) ) )
(assert (let ( (?B1 (select  v0___symfile____tmp_input___0_1_symfile___0 (_ bv0 32) ) ) ) (let ( (?B2 ((_ zero_extend 24)  ?B1 ) ) ) (and  (and  (and  (and  (and  (and  (and  (and  (=  (_ bv0 32) (bvand  (bvadd  (_ bv4294967264 32) ?B2 ) (_ bv255 32) ) ) (=  (_ bv0 32) (bvand  (bvadd  (_ bv4294967256 32) ?B2 ) (_ bv255 32) ) ) ) (=  false (=  (_ bv0 32) (bvand  (bvadd  (_ bv4294967249 32) ?B2 ) (_ bv255 32) ) ) ) ) (=  false (=  (_ bv0 32) (bvand  (bvadd  (_ bv4294967254 32) ?B2 ) (_ bv255 32) ) ) ) ) (=  false (=  (_ bv0 32) (bvand  (bvadd  (_ bv4294967251 32) ?B2 ) (_ bv255 32) ) ) ) ) (=  false (=  (_ bv0 32) (bvand  (bvadd  (_ bv4294967253 32) ?B2 ) (_ bv255 32) ) ) ) ) (=  false (=  (_ bv0 32) (bvand  (bvand  ?B2 ?B2 ) (_ bv255 32) ) ) ) ) (bvule  ?B1 (_ bv126 8) ) ) (bvule  (_ bv32 8) ?B1 ) ) ) ) )
(check-sat)
(get-value ( (select v0___symfile____tmp_input___0_1_symfile___0 (_ bv0 32) ) ) )
(exit)
;   OK -- Elapsed: 6.569624e-04
;   Solvable: false

; Query 21 -- Type: InitialValues, Instructions: 34786
(set-option :produce-models true)
(set-logic QF_AUFBV )
(declare-fun v0___symfile____tmp_input___0_1_symfile___0 () (Array (_ BitVec 32) (_ BitVec 8) ) )
(assert (let ( (?B1 (select  v0___symfile____tmp_input___0_1_symfile___0 (_ bv0 32) ) ) ) (let ( (?B2 ((_ zero_extend 24)  ?B1 ) ) ) (and  (and  (and  (and  (and  (and  (and  (and  (=  (_ bv0 32) (bvand  (bvadd  (_ bv4294967287 32) ?B2 ) (_ bv255 32) ) ) (=  (_ bv0 32) (bvand  (bvadd  (_ bv4294967256 32) ?B2 ) (_ bv255 32) ) ) ) (=  false (=  (_ bv0 32) (bvand  (bvadd  (_ bv4294967249 32) ?B2 ) (_ bv255 32) ) ) ) ) (=  false (=  (_ bv0 32) (bvand  (bvadd  (_ bv4294967254 32) ?B2 ) (_ bv255 32) ) ) ) ) (=  false (=  (_ bv0 32) (bvand  (bvadd  (_ bv4294967251 32) ?B2 ) (_ bv255 32) ) ) ) ) (=  false (=  (_ bv0 32) (bvand  (bvadd  (_ bv4294967253 32) ?B2 ) (_ bv255 32) ) ) ) ) (=  false (=  (_ bv0 32) (bvand  (bvand  ?B2 ?B2 ) (_ bv255 32) ) ) ) ) (bvule  ?B1 (_ bv126 8) ) ) (bvule  (_ bv32 8) ?B1 ) ) ) ) )
(check-sat)
(get-value ( (select v0___symfile____tmp_input___0_1_symfile___0 (_ bv0 32) ) ) )
(exit)
;   OK -- Elapsed: 5.270243e-04
;   Solvable: false

; Query 22 -- Type: InitialValues, Instructions: 35675
(set-option :produce-models true)
(set-logic QF_AUFBV )
(declare-fun v0___symfile____tmp_input___0_1_symfile___0 () (Array (_ BitVec 32) (_ BitVec 8) ) )
(assert (let ( (?B1 (select  v0___symfile____tmp_input___0_1_symfile___0 (_ bv0 32) ) ) ) (let ( (?B2 ((_ zero_extend 24)  ?B1 ) ) ) (and  (and  (and  (and  (and  (and  (and  (and  (=  false (bvsle  ((_ sign_extend 24)  ?B1 ) (_ bv47 32) ) ) (=  (_ bv0 32) (bvand  (bvadd  (_ bv4294967256 32) ?B2 ) (_ bv255 32) ) ) ) (=  false (=  (_ bv0 32) (bvand  (bvadd  (_ bv4294967249 32) ?B2 ) (_ bv255 32) ) ) ) ) (=  false (=  (_ bv0 32) (bvand  (bvadd  (_ bv4294967254 32) ?B2 ) (_ bv255 32) ) ) ) ) (=  false (=  (_ bv0 32) (bvand  (bvadd  (_ bv4294967251 32) ?B2 ) (_ bv255 32) ) ) ) ) (=  false (=  (_ bv0 32) (bvand  (bvadd  (_ bv4294967253 32) ?B2 ) (_ bv255 32) ) ) ) ) (=  false (=  (_ bv0 32) (bvand  (bvand  ?B2 ?B2 ) (_ bv255 32) ) ) ) ) (bvule  ?B1 (_ bv126 8) ) ) (bvule  (_ bv32 8) ?B1 ) ) ) ) )
(check-sat)
(get-value ( (select v0___symfile____tmp_input___0_1_symfile___0 (_ bv0 32) ) ) )
(exit)
;   OK -- Elapsed: 5.799532e-04
;   Solvable: false

; Query 23 -- Type: InitialValues, Instructions: 36470
(set-option :produce-models true)
(set-logic QF_AUFBV )
(declare-fun v0___symfile____tmp_input___0_1_symfile___0 () (Array (_ BitVec 32) (_ BitVec 8) ) )
(assert (let ( (?B1 (select  v0___symfile____tmp_input___0_1_symfile___0 (_ bv0 32) ) ) ) (let ( (?B2 ((_ zero_extend 24)  ?B1 ) ) ) (let ( (?B3 (=  (_ bv0 32) (bvand  (bvadd  (_ bv4294967253 32) ?B2 ) (_ bv255 32) ) ) ) ) (and  (and  (and  (and  (and  (and  (and  (and  ?B3 (=  (_ bv0 32) (bvand  (bvadd  (_ bv4294967256 32) ?B2 ) (_ bv255 32) ) ) ) (=  false (=  (_ bv0 32) (bvand  (bvadd  (_ bv4294967249 32) ?B2 ) (_ bv255 32) ) ) ) ) (=  false (=  (_ bv0 32) (bvand  (bvadd  (_ bv4294967254 32) ?B2 ) (_ bv255 32) ) ) ) ) (=  false (=  (_ bv0 32) (bvand  (bvadd  (_ bv4294967251 32) ?B2 ) (_ bv255 32) ) ) ) ) (=  false ?B3 ) ) (=  false (=  (_ bv0 32) (bvand  (bvand  ?B2 ?B2 ) (_ bv255 32) ) ) ) ) (bvule  ?B1 (_ bv126 8) ) ) (bvule  (_ bv32 8) ?B1 ) ) ) ) ) )
(check-sat)
(get-value ( (select v0___symfile____tmp_input___0_1_symfile___0 (_ bv0 32) ) ) )
(exit)
;   OK -- Elapsed: 5.329847e-04
;   Solvable: false

; Query 24 -- Type: InitialValues, Instructions: 36608
(set-option :produce-models true)
(set-logic QF_AUFBV )
(declare-fun v0___symfile____tmp_input___0_1_symfile___0 () (Array (_ BitVec 32) (_ BitVec 8) ) )
(assert (let ( (?B1 (select  v0___symfile____tmp_input___0_1_symfile___0 (_ bv0 32) ) ) ) (let ( (?B2 ((_ zero_extend 24)  ?B1 ) ) ) (let ( (?B3 (=  (_ bv0 32) (bvand  (bvadd  (_ bv4294967251 32) ?B2 ) (_ bv255 32) ) ) ) ) (and  (and  (and  (and  (and  (and  (and  (and  ?B3 (=  (_ bv0 32) (bvand  (bvadd  (_ bv4294967256 32) ?B2 ) (_ bv255 32) ) ) ) (=  false (=  (_ bv0 32) (bvand  (bvadd  (_ bv4294967249 32) ?B2 ) (_ bv255 32) ) ) ) ) (=  false (=  (_ bv0 32) (bvand  (bvadd  (_ bv4294967254 32) ?B2 ) (_ bv255 32) ) ) ) ) (=  false ?B3 ) ) (=  false (=  (_ bv0 32) (bvand  (bvadd  (_ bv4294967253 32) ?B2 ) (_ bv255 32) ) ) ) ) (=  false (=  (_ bv0 32) (bvand  (bvand  ?B2 ?B2 ) (_ bv255 32) ) ) ) ) (bvule  ?B1 (_ bv126 8) ) ) (bvule  (_ bv32 8) ?B1 ) ) ) ) ) )
(check-sat)
(get-value ( (select v0___symfile____tmp_input___0_1_symfile___0 (_ bv0 32) ) ) )
(exit)
;   OK -- Elapsed: 5.140305e-04
;   Solvable: false

; Query 25 -- Type: InitialValues, Instructions: 36746
(set-option :produce-models true)
(set-logic QF_AUFBV )
(declare-fun v0___symfile____tmp_input___0_1_symfile___0 () (Array (_ BitVec 32) (_ BitVec 8) ) )
(assert (let ( (?B1 (select  v0___symfile____tmp_input___0_1_symfile___0 (_ bv0 32) ) ) ) (let ( (?B2 ((_ zero_extend 24)  ?B1 ) ) ) (let ( (?B3 (=  (_ bv0 32) (bvand  (bvadd  (_ bv4294967254 32) ?B2 ) (_ bv255 32) ) ) ) ) (and  (and  (and  (and  (and  (and  (and  (and  ?B3 (=  (_ bv0 32) (bvand  (bvadd  (_ bv4294967256 32) ?B2 ) (_ bv255 32) ) ) ) (=  false (=  (_ bv0 32) (bvand  (bvadd  (_ bv4294967249 32) ?B2 ) (_ bv255 32) ) ) ) ) (=  false ?B3 ) ) (=  false (=  (_ bv0 32) (bvand  (bvadd  (_ bv4294967251 32) ?B2 ) (_ bv255 32) ) ) ) ) (=  false (=  (_ bv0 32) (bvand  (bvadd  (_ bv4294967253 32) ?B2 ) (_ bv255 32) ) ) ) ) (=  false (=  (_ bv0 32) (bvand  (bvand  ?B2 ?B2 ) (_ bv255 32) ) ) ) ) (bvule  ?B1 (_ bv126 8) ) ) (bvule  (_ bv32 8) ?B1 ) ) ) ) ) )
(check-sat)
(get-value ( (select v0___symfile____tmp_input___0_1_symfile___0 (_ bv0 32) ) ) )
(exit)
;   OK -- Elapsed: 5.110502e-04
;   Solvable: false

; Query 26 -- Type: InitialValues, Instructions: 36884
(set-option :produce-models true)
(set-logic QF_AUFBV )
(declare-fun v0___symfile____tmp_input___0_1_symfile___0 () (Array (_ BitVec 32) (_ BitVec 8) ) )
(assert (let ( (?B1 (select  v0___symfile____tmp_input___0_1_symfile___0 (_ bv0 32) ) ) ) (let ( (?B2 ((_ zero_extend 24)  ?B1 ) ) ) (let ( (?B3 (=  (_ bv0 32) (bvand  (bvadd  (_ bv4294967249 32) ?B2 ) (_ bv255 32) ) ) ) ) (and  (and  (and  (and  (and  (and  (and  (and  ?B3 (=  (_ bv0 32) (bvand  (bvadd  (_ bv4294967256 32) ?B2 ) (_ bv255 32) ) ) ) (=  false ?B3 ) ) (=  false (=  (_ bv0 32) (bvand  (bvadd  (_ bv4294967254 32) ?B2 ) (_ bv255 32) ) ) ) ) (=  false (=  (_ bv0 32) (bvand  (bvadd  (_ bv4294967251 32) ?B2 ) (_ bv255 32) ) ) ) ) (=  false (=  (_ bv0 32) (bvand  (bvadd  (_ bv4294967253 32) ?B2 ) (_ bv255 32) ) ) ) ) (=  false (=  (_ bv0 32) (bvand  (bvand  ?B2 ?B2 ) (_ bv255 32) ) ) ) ) (bvule  ?B1 (_ bv126 8) ) ) (bvule  (_ bv32 8) ?B1 ) ) ) ) ) )
(check-sat)
(get-value ( (select v0___symfile____tmp_input___0_1_symfile___0 (_ bv0 32) ) ) )
(exit)
;   OK -- Elapsed: 5.190372e-04
;   Solvable: false

; Query 27 -- Type: InitialValues, Instructions: 37022
(set-option :produce-models true)
(set-logic QF_AUFBV )
(declare-fun v0___symfile____tmp_input___0_1_symfile___0 () (Array (_ BitVec 32) (_ BitVec 8) ) )
(assert (let ( (?B1 (select  v0___symfile____tmp_input___0_1_symfile___0 (_ bv0 32) ) ) ) (let ( (?B2 ((_ zero_extend 24)  ?B1 ) ) ) (let ( (?B3 (=  (_ bv0 32) (bvand  (bvadd  (_ bv4294967256 32) ?B2 ) (_ bv255 32) ) ) ) ) false ) ) ) )
(check-sat)
(get-value ( (select v0___symfile____tmp_input___0_1_symfile___0 (_ bv0 32) ) ) )
(exit)
;   OK -- Elapsed: 5.129576e-04
;   Solvable: false

; Query 28 -- Type: InitialValues, Instructions: 42064
(set-option :produce-models true)
(set-logic QF_AUFBV )
(declare-fun v0___symfile____tmp_input___0_1_symfile___0 () (Array (_ BitVec 32) (_ BitVec 8) ) )
(assert (let ( (?B1 (select  v0___symfile____tmp_input___0_1_symfile___0 (_ bv0 32) ) ) ) (let ( (?B2 ((_ zero_extend 24)  ?B1 ) ) ) (and  (and  (and  (and  (and  (and  (and  (and  (and  (and  (=  (_ bv0 32) (bvand  (bvadd  (_ bv4294967286 32) ?B2 ) (_ bv255 32) ) ) (bvsle  ((_ sign_extend 24)  ?B1 ) (_ bv47 32) ) ) (=  false (=  (_ bv0 32) (bvand  (bvadd  (_ bv4294967255 32) ?B2 ) (_ bv255 32) ) ) ) ) (=  false (=  (_ bv0 32) (bvand  (bvadd  (_ bv4294967256 32) ?B2 ) (_ bv255 32) ) ) ) ) (=  false (=  (_ bv0 32) (bvand  (bvadd  (_ bv4294967249 32) ?B2 ) (_ bv255 32) ) ) ) ) (=  false (=  (_ bv0 32) (bvand  (bvadd  (_ bv4294967254 32) ?B2 ) (_ bv255 32) ) ) ) ) (=  false (=  (_ bv0 32) (bvand  (bvadd  (_ bv4294967251 32) ?B2 ) (_ bv255 32) ) ) ) ) (=  false (=  (_ bv0 32) (bvand  (bvadd  (_ bv4294967253 32) ?B2 ) (_ bv255 32) ) ) ) ) (=  false (=  (_ bv0 32) (bvand  (bvand  ?B2 ?B2 ) (_ bv255 32) ) ) ) ) (bvule  ?B1 (_ bv126 8) ) ) (bvule  (_ bv32 8) ?B1 ) ) ) ) )
(check-sat)
(get-value ( (select v0___symfile____tmp_input___0_1_symfile___0 (_ bv0 32) ) ) )
(exit)
;   OK -- Elapsed: 7.679462e-04
;   Solvable: false

; Query 29 -- Type: InitialValues, Instructions: 42203
(set-option :produce-models true)
(set-logic QF_AUFBV )
(declare-fun v0___symfile____tmp_input___0_1_symfile___0 () (Array (_ BitVec 32) (_ BitVec 8) ) )
(assert (let ( (?B1 (select  v0___symfile____tmp_input___0_1_symfile___0 (_ bv0 32) ) ) ) (let ( (?B2 ((_ zero_extend 24)  ?B1 ) ) ) (and  (and  (and  (and  (and  (and  (and  (and  (and  (and  (=  (_ bv0 32) (bvand  ?B2 (_ bv255 32) ) ) (bvsle  ((_ sign_extend 24)  ?B1 ) (_ bv47 32) ) ) (=  false (=  (_ bv0 32) (bvand  (bvadd  (_ bv4294967255 32) ?B2 ) (_ bv255 32) ) ) ) ) (=  false (=  (_ bv0 32) (bvand  (bvadd  (_ bv4294967256 32) ?B2 ) (_ bv255 32) ) ) ) ) (=  false (=  (_ bv0 32) (bvand  (bvadd  (_ bv4294967249 32) ?B2 ) (_ bv255 32) ) ) ) ) (=  false (=  (_ bv0 32) (bvand  (bvadd  (_ bv4294967254 32) ?B2 ) (_ bv255 32) ) ) ) ) (=  false (=  (_ bv0 32) (bvand  (bvadd  (_ bv4294967251 32) ?B2 ) (_ bv255 32) ) ) ) ) (=  false (=  (_ bv0 32) (bvand  (bvadd  (_ bv4294967253 32) ?B2 ) (_ bv255 32) ) ) ) ) (=  false (=  (_ bv0 32) (bvand  (bvand  ?B2 ?B2 ) (_ bv255 32) ) ) ) ) (bvule  ?B1 (_ bv126 8) ) ) (bvule  (_ bv32 8) ?B1 ) ) ) ) )
(check-sat)
(get-value ( (select v0___symfile____tmp_input___0_1_symfile___0 (_ bv0 32) ) ) )
(exit)
;   OK -- Elapsed: 5.530119e-04
;   Solvable: false

; Query 30 -- Type: InitialValues, Instructions: 46395
(set-option :produce-models true)
(set-logic QF_AUFBV )
(declare-fun v0___symfile____tmp_input___0_1_symfile___0 () (Array (_ BitVec 32) (_ BitVec 8) ) )
(assert (let ( (?B1 (select  v0___symfile____tmp_input___0_1_symfile___0 (_ bv0 32) ) ) ) (let ( (?B2 ((_ zero_extend 24)  ?B1 ) ) (?B3 ((_ sign_extend 24)  ?B1 ) ) ) (and  (and  (and  (and  (and  (and  (and  (and  (and  (and  (and  (=  (_ bv0 32) (bvand  (bvadd  (_ bv4294967264 32) ?B2 ) (_ bv255 32) ) ) (=  false (bvslt  (_ bv57 32) ?B3 ) ) ) (=  false (bvsle  ?B3 (_ bv47 32) ) ) ) (=  false (=  (_ bv0 32) (bvand  (bvadd  (_ bv4294967255 32) ?B2 ) (_ bv255 32) ) ) ) ) (=  false (=  (_ bv0 32) (bvand  (bvadd  (_ bv4294967256 32) ?B2 ) (_ bv255 32) ) ) ) ) (=  false (=  (_ bv0 32) (bvand  (bvadd  (_ bv4294967249 32) ?B2 ) (_ bv255 32) ) ) ) ) (=  false (=  (_ bv0 32) (bvand  (bvadd  (_ bv4294967254 32) ?B2 ) (_ bv255 32) ) ) ) ) (=  false (=  (_ bv0 32) (bvand  (bvadd  (_ bv4294967251 32) ?B2 ) (_ bv255 32) ) ) ) ) (=  false (=  (_ bv0 32) (bvand  (bvadd  (_ bv4294967253 32) ?B2 ) (_ bv255 32) ) ) ) ) (=  false (=  (_ bv0 32) (bvand  (bvand  ?B2 ?B2 ) (_ bv255 32) ) ) ) ) (bvule  ?B1 (_ bv126 8) ) ) (bvule  (_ bv32 8) ?B1 ) ) ) ) )
(check-sat)
(get-value ( (select v0___symfile____tmp_input___0_1_symfile___0 (_ bv0 32) ) ) )
(exit)
;   OK -- Elapsed: 7.630587e-04
;   Solvable: false

; Query 31 -- Type: InitialValues, Instructions: 46535
(set-option :produce-models true)
(set-logic QF_AUFBV )
(declare-fun v0___symfile____tmp_input___0_1_symfile___0 () (Array (_ BitVec 32) (_ BitVec 8) ) )
(assert (let ( (?B1 (select  v0___symfile____tmp_input___0_1_symfile___0 (_ bv0 32) ) ) ) (let ( (?B2 ((_ zero_extend 24)  ?B1 ) ) (?B3 ((_ sign_extend 24)  ?B1 ) ) ) (and  (and  (and  (and  (and  (and  (and  (and  (and  (and  (and  (=  (_ bv0 32) (bvand  (bvadd  (_ bv4294967287 32) ?B2 ) (_ bv255 32) ) ) (=  false (bvslt  (_ bv57 32) ?B3 ) ) ) (=  false (bvsle  ?B3 (_ bv47 32) ) ) ) (=  false (=  (_ bv0 32) (bvand  (bvadd  (_ bv4294967255 32) ?B2 ) (_ bv255 32) ) ) ) ) (=  false (=  (_ bv0 32) (bvand  (bvadd  (_ bv4294967256 32) ?B2 ) (_ bv255 32) ) ) ) ) (=  false (=  (_ bv0 32) (bvand  (bvadd  (_ bv4294967249 32) ?B2 ) (_ bv255 32) ) ) ) ) (=  false (=  (_ bv0 32) (bvand  (bvadd  (_ bv4294967254 32) ?B2 ) (_ bv255 32) ) ) ) ) (=  false (=  (_ bv0 32) (bvand  (bvadd  (_ bv4294967251 32) ?B2 ) (_ bv255 32) ) ) ) ) (=  false (=  (_ bv0 32) (bvand  (bvadd  (_ bv4294967253 32) ?B2 ) (_ bv255 32) ) ) ) ) (=  false (=  (_ bv0 32) (bvand  (bvand  ?B2 ?B2 ) (_ bv255 32) ) ) ) ) (bvule  ?B1 (_ bv126 8) ) ) (bvule  (_ bv32 8) ?B1 ) ) ) ) )
(check-sat)
(get-value ( (select v0___symfile____tmp_input___0_1_symfile___0 (_ bv0 32) ) ) )
(exit)
;   OK -- Elapsed: 6.350279e-04
;   Solvable: false

; Query 32 -- Type: InitialValues, Instructions: 47432
(set-option :produce-models true)
(set-logic QF_AUFBV )
(declare-fun v0___symfile____tmp_input___0_1_symfile___0 () (Array (_ BitVec 32) (_ BitVec 8) ) )
(assert (let ( (?B1 (select  v0___symfile____tmp_input___0_1_symfile___0 (_ bv0 32) ) ) ) (let ( (?B2 ((_ zero_extend 24)  ?B1 ) ) (?B3 ((_ sign_extend 24)  ?B1 ) ) ) (let ( (?B4 (bvsle  ?B3 (_ bv47 32) ) ) ) (and  (and  (and  (and  (and  (and  (and  (and  (and  (and  (and  ?B4 (=  false (bvslt  (_ bv57 32) ?B3 ) ) ) (=  false ?B4 ) ) (=  false (=  (_ bv0 32) (bvand  (bvadd  (_ bv4294967255 32) ?B2 ) (_ bv255 32) ) ) ) ) (=  false (=  (_ bv0 32) (bvand  (bvadd  (_ bv4294967256 32) ?B2 ) (_ bv255 32) ) ) ) ) (=  false (=  (_ bv0 32) (bvand  (bvadd  (_ bv4294967249 32) ?B2 ) (_ bv255 32) ) ) ) ) (=  false (=  (_ bv0 32) (bvand  (bvadd  (_ bv4294967254 32) ?B2 ) (_ bv255 32) ) ) ) ) (=  false (=  (_ bv0 32) (bvand  (bvadd  (_ bv4294967251 32) ?B2 ) (_ bv255 32) ) ) ) ) (=  false (=  (_ bv0 32) (bvand  (bvadd  (_ bv4294967253 32) ?B2 ) (_ bv255 32) ) ) ) ) (=  false (=  (_ bv0 32) (bvand  (bvand  ?B2 ?B2 ) (_ bv255 32) ) ) ) ) (bvule  ?B1 (_ bv126 8) ) ) (bvule  (_ bv32 8) ?B1 ) ) ) ) ) )
(check-sat)
(get-value ( (select v0___symfile____tmp_input___0_1_symfile___0 (_ bv0 32) ) ) )
(exit)
;   OK -- Elapsed: 5.890131e-04
;   Solvable: false

; Query 33 -- Type: InitialValues, Instructions: 47574
(set-option :produce-models true)
(set-logic QF_AUFBV )
(declare-fun v0___symfile____tmp_input___0_1_symfile___0 () (Array (_ BitVec 32) (_ BitVec 8) ) )
(assert (let ( (?B1 (select  v0___symfile____tmp_input___0_1_symfile___0 (_ bv0 32) ) ) ) (let ( (?B2 ((_ zero_extend 24)  ?B1 ) ) (?B3 ((_ sign_extend 24)  ?B1 ) ) ) (let ( (?B4 (bvslt  (_ bv57 32) ?B3 ) ) ) false ) ) ) )
(check-sat)
(get-value ( (select v0___symfile____tmp_input___0_1_symfile___0 (_ bv0 32) ) ) )
(exit)
;   OK -- Elapsed: 5.700588e-04
;   Solvable: false

; Query 34 -- Type: InitialValues, Instructions: 51922
(set-option :produce-models true)
(set-logic QF_AUFBV )
(declare-fun v0___symfile____tmp_input___0_1_symfile___0 () (Array (_ BitVec 32) (_ BitVec 8) ) )
(assert (let ( (?B1 (select  v0___symfile____tmp_input___0_1_symfile___0 (_ bv0 32) ) ) ) (let ( (?B2 ((_ zero_extend 24)  ?B1 ) ) (?B3 ((_ sign_extend 24)  ?B1 ) ) ) (let ( (?B4 (bvsle  ?B3 (_ bv47 32) ) ) ) (and  (and  (and  (and  (and  (and  (and  (and  (and  (and  (and  ?B4 (=  false (bvslt  (_ bv57 32) ?B3 ) ) ) (=  false ?B4 ) ) (=  false (=  (_ bv0 32) (bvand  (bvadd  (_ bv4294967255 32) ?B2 ) (_ bv255 32) ) ) ) ) (=  false (=  (_ bv0 32) (bvand  (bvadd  (_ bv4294967256 32) ?B2 ) (_ bv255 32) ) ) ) ) (=  false (=  (_ bv0 32) (bvand  (bvadd  (_ bv4294967249 32) ?B2 ) (_ bv255 32) ) ) ) ) (=  false (=  (_ bv0 32) (bvand  (bvadd  (_ bv4294967254 32) ?B2 ) (_ bv255 32) ) ) ) ) (=  false (=  (_ bv0 32) (bvand  (bvadd  (_ bv4294967251 32) ?B2 ) (_ bv255 32) ) ) ) ) (=  false (=  (_ bv0 32) (bvand  (bvadd  (_ bv4294967253 32) ?B2 ) (_ bv255 32) ) ) ) ) (=  false (=  (_ bv0 32) (bvand  (bvand  ?B2 ?B2 ) (_ bv255 32) ) ) ) ) (bvule  ?B1 (_ bv126 8) ) ) (bvule  (_ bv32 8) ?B1 ) ) ) ) ) )
(check-sat)
(get-value ( (select v0___symfile____tmp_input___0_1_symfile___0 (_ bv0 32) ) ) )
(exit)
;   OK -- Elapsed: 6.470680e-04
;   Solvable: false

; Query 35 -- Type: InitialValues, Instructions: 52064
(set-option :produce-models true)
(set-logic QF_AUFBV )
(declare-fun v0___symfile____tmp_input___0_1_symfile___0 () (Array (_ BitVec 32) (_ BitVec 8) ) )
(assert (let ( (?B1 (select  v0___symfile____tmp_input___0_1_symfile___0 (_ bv0 32) ) ) ) (let ( (?B2 ((_ zero_extend 24)  ?B1 ) ) (?B3 ((_ sign_extend 24)  ?B1 ) ) ) (let ( (?B4 (bvslt  (_ bv57 32) ?B3 ) ) ) false ) ) ) )
(check-sat)
(get-value ( (select v0___symfile____tmp_input___0_1_symfile___0 (_ bv0 32) ) ) )
(exit)
;   OK -- Elapsed: 5.350113e-04
;   Solvable: false

